\ENCODING=ISO-8859-1
\Problem name: IloCplex

Maximize
 obj: 1700 vnp2 - 19019 (π,ρ)0↑e5 - 17017 (π,ρ)1↑e6
      - 46 (π,ρ)2↑e6 - 54 (π,ρ)3↑e6
      - 6045 (π,ρ)4↑e6 - 46 (π,ρ)5↑e6
      - 29029 (π,ρ)6↑e6 - 11055 (π,ρ)7↑e6
      - 11052 (π,ρ)8↑e6 - 54 (π,ρ)9↑e6
      - 11055 (π,ρ)10↑e6 - 37037 (π,ρ)11↑e6
      - 11060 (π,ρ)12↑e6 - 6045 (π,ρ)13↑e6
      - 11052 (π,ρ)14↑e6 - 11060 (π,ρ)15↑e6
      - 34034 (π,ρ)16↑e6 - 31031 (π,ρ)17↑e7
      - 46 (π,ρ)18↑e7 - 66 (π,ρ)19↑e7
      - 13054 (π,ρ)20↑e7 - 46 (π,ρ)21↑e7
      - 15015 (π,ρ)22↑e7 - 12038 (π,ρ)23↑e7
      - 51 (π,ρ)24↑e7 - 66 (π,ρ)25↑e7
      - 12038 (π,ρ)26↑e7 - 35035 (π,ρ)27↑e7
      - 71 (π,ρ)28↑e7 - 13054 (π,ρ)29↑e7
      - 51 (π,ρ)30↑e7 - 71 (π,ρ)31↑e7
      - 36036 (π,ρ)32↑e7 - 18036 (π,ρ)33↑e8
      - 11022 (π,ρ)34↑e9 - 13065 (π,ρ)35↑e10 + 1129 vnp3
      - 21105 (π,ρ)36↑e11 - 10245 (π,ρ)37↑e11
      - 315 (π,ρ)38↑e11 - 10230 (π,ρ)39↑e11
      - 10245 (π,ρ)40↑e11 - 38190 (π,ρ)41↑e11
      - 11345 (π,ρ)42↑e11 - 10315 (π,ρ)43↑e11
      - 315 (π,ρ)44↑e11 - 11345 (π,ρ)45↑e11
      - 42210 (π,ρ)46↑e11 - 385 (π,ρ)47↑e11
      - 10230 (π,ρ)48↑e11 - 10315 (π,ρ)49↑e11
      - 385 (π,ρ)50↑e11 - 35175 (π,ρ)51↑e11
      - 17017 (π,ρ)52↑e12 - 14044 (π,ρ)53↑e12
      - 3042 (π,ρ)54↑e12 - 14040 (π,ρ)55↑e12
      - 14044 (π,ρ)56↑e12 - 41041 (π,ρ)57↑e12
      - 69 (π,ρ)58↑e12 - 14064 (π,ρ)59↑e12
      - 3042 (π,ρ)60↑e12 - 69 (π,ρ)61↑e12
      - 28028 (π,ρ)62↑e12 - 65 (π,ρ)63↑e12
      - 14040 (π,ρ)64↑e12 - 14064 (π,ρ)65↑e12
      - 65 (π,ρ)66↑e12 - 37037 (π,ρ)67↑e12
      - 14028 (π,ρ)68↑e13 - 3009 (π,ρ)69↑e14
      - 22022 (π,ρ)70↑e15 - 47 (π,ρ)71↑e15
      - 63 (π,ρ)72↑e15 - 3046 (π,ρ)73↑e15
      - 47 (π,ρ)74↑e15 - 25025 (π,ρ)75↑e15
      - 11055 (π,ρ)76↑e15 - 52 (π,ρ)77↑e15
      - 63 (π,ρ)78↑e15 - 11055 (π,ρ)79↑e15
      - 41041 (π,ρ)80↑e15 - 68 (π,ρ)81↑e15
      - 3046 (π,ρ)82↑e15 - 52 (π,ρ)83↑e15
      - 68 (π,ρ)84↑e15 - 27027 (π,ρ)85↑e15
      - 19019 (π,ρ)86↑e16
Subject To
 _EmbdConstr_vnp2e5#0:   vnp2 - (π,ρ)0↑e5  = 0
 _EmbdConstr_vnp2e6#1:   vnp2 - (π,ρ)1↑e6 - (π,ρ)2↑e6
                         - (π,ρ)3↑e6 - (π,ρ)4↑e6
                         - (π,ρ)5↑e6 - (π,ρ)6↑e6
                         - (π,ρ)7↑e6 - (π,ρ)8↑e6
                         - (π,ρ)9↑e6 - (π,ρ)10↑e6
                         - (π,ρ)11↑e6 - (π,ρ)12↑e6
                         - (π,ρ)13↑e6 - (π,ρ)14↑e6
                         - (π,ρ)15↑e6 - (π,ρ)16↑e6  = 0
 _EmbdConstr_vnp2e7#2:   vnp2 - (π,ρ)17↑e7 - (π,ρ)18↑e7
                         - (π,ρ)19↑e7 - (π,ρ)20↑e7
                         - (π,ρ)21↑e7 - (π,ρ)22↑e7
                         - (π,ρ)23↑e7 - (π,ρ)24↑e7
                         - (π,ρ)25↑e7 - (π,ρ)26↑e7
                         - (π,ρ)27↑e7 - (π,ρ)28↑e7
                         - (π,ρ)29↑e7 - (π,ρ)30↑e7
                         - (π,ρ)31↑e7 - (π,ρ)32↑e7  = 0
 _EmbdConstr_vnp2e8#3:   vnp2 - (π,ρ)33↑e8  = 0
 _EmbdConstr_vnp2e9#4:   vnp2 - (π,ρ)34↑e9  = 0
 _EmbdConstr_vnp2e10#5:  vnp2 - (π,ρ)35↑e10  = 0
 _EmbdConstr_vnp3e11#6:  vnp3 - (π,ρ)36↑e11 - (π,ρ)37↑e11
                         - (π,ρ)38↑e11 - (π,ρ)39↑e11
                         - (π,ρ)40↑e11 - (π,ρ)41↑e11
                         - (π,ρ)42↑e11 - (π,ρ)43↑e11
                         - (π,ρ)44↑e11 - (π,ρ)45↑e11
                         - (π,ρ)46↑e11 - (π,ρ)47↑e11
                         - (π,ρ)48↑e11 - (π,ρ)49↑e11
                         - (π,ρ)50↑e11 - (π,ρ)51↑e11  = 0
 _EmbdConstr_vnp3e12#7:  vnp3 - (π,ρ)52↑e12 - (π,ρ)53↑e12
                         - (π,ρ)54↑e12 - (π,ρ)55↑e12
                         - (π,ρ)56↑e12 - (π,ρ)57↑e12
                         - (π,ρ)58↑e12 - (π,ρ)59↑e12
                         - (π,ρ)60↑e12 - (π,ρ)61↑e12
                         - (π,ρ)62↑e12 - (π,ρ)63↑e12
                         - (π,ρ)64↑e12 - (π,ρ)65↑e12
                         - (π,ρ)66↑e12 - (π,ρ)67↑e12  = 0
 _EmbdConstr_vnp3e13#8:  vnp3 - (π,ρ)68↑e13  = 0
 _EmbdConstr_vnp3e14#9:  vnp3 - (π,ρ)69↑e14  = 0
 _EmbdConstr_vnp3e15#10: vnp3 - (π,ρ)70↑e15 - (π,ρ)71↑e15
                         - (π,ρ)72↑e15 - (π,ρ)73↑e15
                         - (π,ρ)74↑e15 - (π,ρ)75↑e15
                         - (π,ρ)76↑e15 - (π,ρ)77↑e15
                         - (π,ρ)78↑e15 - (π,ρ)79↑e15
                         - (π,ρ)80↑e15 - (π,ρ)81↑e15
                         - (π,ρ)82↑e15 - (π,ρ)83↑e15
                         - (π,ρ)84↑e15 - (π,ρ)85↑e15  = 0
 _EmbdConstr_vnp3e16#11: vnp3 - (π,ρ)86↑e16  = 0
 BwCapConstr_slink10#12: (π,ρ)19↑e7 + (π,ρ)23↑e7
                         + (π,ρ)25↑e7 + (π,ρ)26↑e7
                         + 2 (π,ρ)27↑e7 + (π,ρ)28↑e7
                         + (π,ρ)31↑e7 + (π,ρ)55↑e12
                         + (π,ρ)59↑e12 + (π,ρ)63↑e12
                         + (π,ρ)64↑e12 + (π,ρ)65↑e12
                         + (π,ρ)66↑e12 + 2 (π,ρ)67↑e12
                         <= 20
 BwCapConstr_slink11#13: (π,ρ)19↑e7 + (π,ρ)23↑e7
                         + (π,ρ)25↑e7 + (π,ρ)26↑e7
                         + 2 (π,ρ)27↑e7 + (π,ρ)28↑e7
                         + (π,ρ)31↑e7 + (π,ρ)55↑e12
                         + (π,ρ)59↑e12 + (π,ρ)63↑e12
                         + (π,ρ)64↑e12 + (π,ρ)65↑e12
                         + (π,ρ)66↑e12 + 2 (π,ρ)67↑e12
                         <= 9
 BwCapConstr_slink22#14: (π,ρ)73↑e15 + (π,ρ)77↑e15
                         + (π,ρ)81↑e15 + (π,ρ)82↑e15
                         + (π,ρ)83↑e15 + (π,ρ)84↑e15
                         + 2 (π,ρ)85↑e15 <= 0
 BwCapConstr_slink23#15: (π,ρ)73↑e15 + (π,ρ)77↑e15
                         + (π,ρ)81↑e15 + (π,ρ)82↑e15
                         + (π,ρ)83↑e15 + (π,ρ)84↑e15
                         + 2 (π,ρ)85↑e15 <= 13
 BwCapConstr_slink24#16: 2 (π,ρ)0↑e5 + 2 (π,ρ)70↑e15
                         + (π,ρ)71↑e15 + (π,ρ)72↑e15
                         + (π,ρ)73↑e15 + (π,ρ)74↑e15
                         + (π,ρ)78↑e15 + (π,ρ)82↑e15
                         + 2 (π,ρ)86↑e16 <= 9
 BwCapConstr_slink25#17: 2 (π,ρ)17↑e7 + (π,ρ)18↑e7
                         + (π,ρ)19↑e7 + 2 (π,ρ)20↑e7
                         + (π,ρ)21↑e7 + (π,ρ)24↑e7
                         + (π,ρ)25↑e7 + (π,ρ)28↑e7
                         + 2 (π,ρ)29↑e7 + (π,ρ)30↑e7
                         + (π,ρ)31↑e7 + 2 (π,ρ)32↑e7
                         + 10 (π,ρ)35↑e10 + (π,ρ)53↑e12
                         + (π,ρ)56↑e12 + 2 (π,ρ)57↑e12
                         + (π,ρ)58↑e12 + (π,ρ)59↑e12
                         + (π,ρ)61↑e12 + (π,ρ)65↑e12 <= 5
 BwCapConstr_slink26#18: (π,ρ)18↑e7 + (π,ρ)21↑e7
                         + 2 (π,ρ)22↑e7 + (π,ρ)23↑e7
                         + (π,ρ)24↑e7 + (π,ρ)26↑e7
                         + (π,ρ)30↑e7 + 2 (π,ρ)52↑e12
                         + (π,ρ)53↑e12 + 2 (π,ρ)54↑e12
                         + (π,ρ)55↑e12 + (π,ρ)56↑e12
                         + (π,ρ)58↑e12 + 2 (π,ρ)60↑e12
                         + (π,ρ)61↑e12 + 2 (π,ρ)62↑e12
                         + (π,ρ)63↑e12 + (π,ρ)64↑e12
                         + (π,ρ)66↑e12 + 6 (π,ρ)69↑e14
                         + 2 (π,ρ)70↑e15 + (π,ρ)71↑e15
                         + (π,ρ)72↑e15 + 2 (π,ρ)73↑e15
                         + (π,ρ)74↑e15 + (π,ρ)77↑e15
                         + (π,ρ)78↑e15 + (π,ρ)81↑e15
                         + 2 (π,ρ)82↑e15 + (π,ρ)83↑e15
                         + (π,ρ)84↑e15 + 2 (π,ρ)85↑e15
                         <= 5
 BwCapConstr_slink27#19: (π,ρ)3↑e6 + (π,ρ)7↑e6
                         + (π,ρ)9↑e6 + (π,ρ)10↑e6
                         + 2 (π,ρ)11↑e6 + (π,ρ)12↑e6
                         + (π,ρ)15↑e6 + (π,ρ)53↑e12
                         + (π,ρ)56↑e12 + 2 (π,ρ)57↑e12
                         + (π,ρ)58↑e12 + (π,ρ)59↑e12
                         + (π,ρ)61↑e12 + (π,ρ)65↑e12
                         + (π,ρ)71↑e15 + (π,ρ)74↑e15
                         + 2 (π,ρ)75↑e15 + (π,ρ)76↑e15
                         + (π,ρ)77↑e15 + (π,ρ)79↑e15
                         + (π,ρ)83↑e15 <= 13
 BwCapConstr_slink28#20: (π,ρ)2↑e6 + (π,ρ)3↑e6
                         + (π,ρ)4↑e6 + (π,ρ)5↑e6
                         + 2 (π,ρ)6↑e6 + 2 (π,ρ)7↑e6
                         + 2 (π,ρ)8↑e6 + (π,ρ)9↑e6
                         + 2 (π,ρ)10↑e6 + 2 (π,ρ)11↑e6
                         + 2 (π,ρ)12↑e6 + (π,ρ)13↑e6
                         + 2 (π,ρ)14↑e6 + 2 (π,ρ)15↑e6
                         + 2 (π,ρ)16↑e6 + 4 (π,ρ)34↑e9
                         + 5 (π,ρ)37↑e11 + 5 (π,ρ)38↑e11
                         + 5 (π,ρ)40↑e11 + 10 (π,ρ)41↑e11
                         + 10 (π,ρ)42↑e11 + 5 (π,ρ)43↑e11
                         + 5 (π,ρ)44↑e11 + 10 (π,ρ)45↑e11
                         + 10 (π,ρ)46↑e11 + 5 (π,ρ)47↑e11
                         + 5 (π,ρ)49↑e11 + 5 (π,ρ)50↑e11
                         + (π,ρ)71↑e15 + (π,ρ)72↑e15
                         + (π,ρ)74↑e15 + 2 (π,ρ)75↑e15
                         + 2 (π,ρ)76↑e15 + (π,ρ)77↑e15
                         + (π,ρ)78↑e15 + 2 (π,ρ)79↑e15
                         + 2 (π,ρ)80↑e15 + (π,ρ)81↑e15
                         + (π,ρ)83↑e15 + (π,ρ)84↑e15 <= 6
 BwCapConstr_slink29#21: 2 (π,ρ)1↑e6 + (π,ρ)2↑e6
                         + (π,ρ)3↑e6 + (π,ρ)4↑e6
                         + (π,ρ)5↑e6 + (π,ρ)9↑e6
                         + (π,ρ)13↑e6 + 10 (π,ρ)36↑e11
                         + 5 (π,ρ)37↑e11 + 5 (π,ρ)38↑e11
                         + 5 (π,ρ)39↑e11 + 5 (π,ρ)40↑e11
                         + 5 (π,ρ)44↑e11 + 5 (π,ρ)48↑e11
                         <= 15
 BwCapConstr_slink30#22: 5 (π,ρ)39↑e11 + 5 (π,ρ)43↑e11
                         + 5 (π,ρ)47↑e11 + 5 (π,ρ)48↑e11
                         + 5 (π,ρ)49↑e11 + 5 (π,ρ)50↑e11
                         + 10 (π,ρ)51↑e11 <= 17
 BwCapConstr_slink31#23: 5 (π,ρ)39↑e11 + 5 (π,ρ)43↑e11
                         + 5 (π,ρ)47↑e11 + 5 (π,ρ)48↑e11
                         + 5 (π,ρ)49↑e11 + 5 (π,ρ)50↑e11
                         + 10 (π,ρ)51↑e11 <= 6
 BwCapConstr_slink37#24: (π,ρ)4↑e6 + (π,ρ)8↑e6
                         + (π,ρ)12↑e6 + (π,ρ)13↑e6
                         + (π,ρ)14↑e6 + (π,ρ)15↑e6
                         + 2 (π,ρ)16↑e6 + (π,ρ)20↑e7
                         + (π,ρ)24↑e7 + (π,ρ)28↑e7
                         + (π,ρ)29↑e7 + (π,ρ)30↑e7
                         + (π,ρ)31↑e7 + 2 (π,ρ)32↑e7
                         + 5 (π,ρ)37↑e11 + 5 (π,ρ)40↑e11
                         + 10 (π,ρ)41↑e11 + 5 (π,ρ)42↑e11
                         + 5 (π,ρ)43↑e11 + 5 (π,ρ)45↑e11
                         + 5 (π,ρ)49↑e11 <= 6
 BwCapConstr_slink38#25: (π,ρ)2↑e6 + (π,ρ)5↑e6
                         + 2 (π,ρ)6↑e6 + (π,ρ)7↑e6
                         + (π,ρ)8↑e6 + (π,ρ)10↑e6
                         + (π,ρ)14↑e6 + 2 (π,ρ)17↑e7
                         + (π,ρ)18↑e7 + (π,ρ)19↑e7
                         + (π,ρ)20↑e7 + (π,ρ)21↑e7
                         + (π,ρ)25↑e7 + (π,ρ)29↑e7
                         + 4 (π,ρ)33↑e8 + 5 (π,ρ)38↑e11
                         + 5 (π,ρ)42↑e11 + 5 (π,ρ)44↑e11
                         + 5 (π,ρ)45↑e11 + 10 (π,ρ)46↑e11
                         + 5 (π,ρ)47↑e11 + 5 (π,ρ)50↑e11
                         + (π,ρ)72↑e15 + (π,ρ)76↑e15
                         + (π,ρ)78↑e15 + (π,ρ)79↑e15
                         + 2 (π,ρ)80↑e15 + (π,ρ)81↑e15
                         + (π,ρ)84↑e15 <= 18
 BwCapConstr_slink39#26: 2 (π,ρ)1↑e6 + (π,ρ)2↑e6
                         + (π,ρ)3↑e6 + 2 (π,ρ)4↑e6
                         + (π,ρ)5↑e6 + (π,ρ)8↑e6
                         + (π,ρ)9↑e6 + (π,ρ)12↑e6
                         + 2 (π,ρ)13↑e6 + (π,ρ)14↑e6
                         + (π,ρ)15↑e6 + 2 (π,ρ)16↑e6
                         + (π,ρ)20↑e7 + (π,ρ)24↑e7
                         + (π,ρ)28↑e7 + (π,ρ)29↑e7
                         + (π,ρ)30↑e7 + (π,ρ)31↑e7
                         + 2 (π,ρ)32↑e7 <= 12
 BwCapConstr_slink40#27: 10 (π,ρ)36↑e11 + 10 (π,ρ)37↑e11
                         + 5 (π,ρ)38↑e11 + 10 (π,ρ)39↑e11
                         + 10 (π,ρ)40↑e11
                         + 10 (π,ρ)41↑e11 + 5 (π,ρ)42↑e11
                         + 10 (π,ρ)43↑e11 + 5 (π,ρ)44↑e11
                         + 5 (π,ρ)45↑e11 + 5 (π,ρ)47↑e11
                         + 10 (π,ρ)48↑e11
                         + 10 (π,ρ)49↑e11 + 5 (π,ρ)50↑e11
                         + 10 (π,ρ)51↑e11 <= 5
 BwCapConstr_slink41#28: (π,ρ)3↑e6 + (π,ρ)7↑e6
                         + (π,ρ)9↑e6 + (π,ρ)10↑e6
                         + 2 (π,ρ)11↑e6 + (π,ρ)12↑e6
                         + (π,ρ)15↑e6 + (π,ρ)18↑e7
                         + (π,ρ)19↑e7 + (π,ρ)21↑e7
                         + 2 (π,ρ)22↑e7 + 2 (π,ρ)23↑e7
                         + (π,ρ)24↑e7 + (π,ρ)25↑e7
                         + 2 (π,ρ)26↑e7 + 2 (π,ρ)27↑e7
                         + (π,ρ)28↑e7 + (π,ρ)30↑e7
                         + (π,ρ)31↑e7 + (π,ρ)54↑e12
                         + (π,ρ)58↑e12 + (π,ρ)60↑e12
                         + (π,ρ)61↑e12 + 2 (π,ρ)62↑e12
                         + (π,ρ)63↑e12 + (π,ρ)66↑e12
                         + (π,ρ)72↑e15 + (π,ρ)76↑e15
                         + (π,ρ)78↑e15 + (π,ρ)79↑e15
                         + 2 (π,ρ)80↑e15 + (π,ρ)81↑e15
                         + (π,ρ)84↑e15 <= 19
 BwCapConstr_slink42#29: 2 (π,ρ)52↑e12 + 2 (π,ρ)53↑e12
                         + (π,ρ)54↑e12 + 2 (π,ρ)55↑e12
                         + 2 (π,ρ)56↑e12 + 2 (π,ρ)57↑e12
                         + (π,ρ)58↑e12 + 2 (π,ρ)59↑e12
                         + (π,ρ)60↑e12 + (π,ρ)61↑e12
                         + (π,ρ)63↑e12 + 2 (π,ρ)64↑e12
                         + 2 (π,ρ)65↑e12 + (π,ρ)66↑e12
                         + 2 (π,ρ)67↑e12 + 4 (π,ρ)68↑e13
                         <= 10
 BwCapConstr_slink43#30: 5 (π,ρ)38↑e11 + 5 (π,ρ)42↑e11
                         + 5 (π,ρ)44↑e11 + 5 (π,ρ)45↑e11
                         + 10 (π,ρ)46↑e11 + 5 (π,ρ)47↑e11
                         + 5 (π,ρ)50↑e11 + (π,ρ)54↑e12
                         + (π,ρ)58↑e12 + (π,ρ)60↑e12
                         + (π,ρ)61↑e12 + 2 (π,ρ)62↑e12
                         + (π,ρ)63↑e12 + (π,ρ)66↑e12
                         <= 15
Bounds
 0 <= vnp2 <= 1
 0 <= (π,ρ)0↑e5 <= 1
 0 <= (π,ρ)1↑e6 <= 1
 0 <= (π,ρ)2↑e6 <= 1
 0 <= (π,ρ)3↑e6 <= 1
 0 <= (π,ρ)4↑e6 <= 1
 0 <= (π,ρ)5↑e6 <= 1
 0 <= (π,ρ)6↑e6 <= 1
 0 <= (π,ρ)7↑e6 <= 1
 0 <= (π,ρ)8↑e6 <= 1
 0 <= (π,ρ)9↑e6 <= 1
 0 <= (π,ρ)10↑e6 <= 1
 0 <= (π,ρ)11↑e6 <= 1
 0 <= (π,ρ)12↑e6 <= 1
 0 <= (π,ρ)13↑e6 <= 1
 0 <= (π,ρ)14↑e6 <= 1
 0 <= (π,ρ)15↑e6 <= 1
 0 <= (π,ρ)16↑e6 <= 1
 0 <= (π,ρ)17↑e7 <= 1
 0 <= (π,ρ)18↑e7 <= 1
 0 <= (π,ρ)19↑e7 <= 1
 0 <= (π,ρ)20↑e7 <= 1
 0 <= (π,ρ)21↑e7 <= 1
 0 <= (π,ρ)22↑e7 <= 1
 0 <= (π,ρ)23↑e7 <= 1
 0 <= (π,ρ)24↑e7 <= 1
 0 <= (π,ρ)25↑e7 <= 1
 0 <= (π,ρ)26↑e7 <= 1
 0 <= (π,ρ)27↑e7 <= 1
 0 <= (π,ρ)28↑e7 <= 1
 0 <= (π,ρ)29↑e7 <= 1
 0 <= (π,ρ)30↑e7 <= 1
 0 <= (π,ρ)31↑e7 <= 1
 0 <= (π,ρ)32↑e7 <= 1
 0 <= (π,ρ)33↑e8 <= 1
 0 <= (π,ρ)34↑e9 <= 1
 0 <= (π,ρ)35↑e10 <= 1
 0 <= vnp3 <= 1
 0 <= (π,ρ)36↑e11 <= 1
 0 <= (π,ρ)37↑e11 <= 1
 0 <= (π,ρ)38↑e11 <= 1
 0 <= (π,ρ)39↑e11 <= 1
 0 <= (π,ρ)40↑e11 <= 1
 0 <= (π,ρ)41↑e11 <= 1
 0 <= (π,ρ)42↑e11 <= 1
 0 <= (π,ρ)43↑e11 <= 1
 0 <= (π,ρ)44↑e11 <= 1
 0 <= (π,ρ)45↑e11 <= 1
 0 <= (π,ρ)46↑e11 <= 1
 0 <= (π,ρ)47↑e11 <= 1
 0 <= (π,ρ)48↑e11 <= 1
 0 <= (π,ρ)49↑e11 <= 1
 0 <= (π,ρ)50↑e11 <= 1
 0 <= (π,ρ)51↑e11 <= 1
 0 <= (π,ρ)52↑e12 <= 1
 0 <= (π,ρ)53↑e12 <= 1
 0 <= (π,ρ)54↑e12 <= 1
 0 <= (π,ρ)55↑e12 <= 1
 0 <= (π,ρ)56↑e12 <= 1
 0 <= (π,ρ)57↑e12 <= 1
 0 <= (π,ρ)58↑e12 <= 1
 0 <= (π,ρ)59↑e12 <= 1
 0 <= (π,ρ)60↑e12 <= 1
 0 <= (π,ρ)61↑e12 <= 1
 0 <= (π,ρ)62↑e12 <= 1
 0 <= (π,ρ)63↑e12 <= 1
 0 <= (π,ρ)64↑e12 <= 1
 0 <= (π,ρ)65↑e12 <= 1
 0 <= (π,ρ)66↑e12 <= 1
 0 <= (π,ρ)67↑e12 <= 1
 0 <= (π,ρ)68↑e13 <= 1
 0 <= (π,ρ)69↑e14 <= 1
 0 <= (π,ρ)70↑e15 <= 1
 0 <= (π,ρ)71↑e15 <= 1
 0 <= (π,ρ)72↑e15 <= 1
 0 <= (π,ρ)73↑e15 <= 1
 0 <= (π,ρ)74↑e15 <= 1
 0 <= (π,ρ)75↑e15 <= 1
 0 <= (π,ρ)76↑e15 <= 1
 0 <= (π,ρ)77↑e15 <= 1
 0 <= (π,ρ)78↑e15 <= 1
 0 <= (π,ρ)79↑e15 <= 1
 0 <= (π,ρ)80↑e15 <= 1
 0 <= (π,ρ)81↑e15 <= 1
 0 <= (π,ρ)82↑e15 <= 1
 0 <= (π,ρ)83↑e15 <= 1
 0 <= (π,ρ)84↑e15 <= 1
 0 <= (π,ρ)85↑e15 <= 1
 0 <= (π,ρ)86↑e16 <= 1
Binaries
 vnp2  (π,ρ)0↑e5  (π,ρ)1↑e6  (π,ρ)2↑e6 
 (π,ρ)3↑e6  (π,ρ)4↑e6  (π,ρ)5↑e6 
 (π,ρ)6↑e6  (π,ρ)7↑e6  (π,ρ)8↑e6 
 (π,ρ)9↑e6  (π,ρ)10↑e6  (π,ρ)11↑e6 
 (π,ρ)12↑e6  (π,ρ)13↑e6  (π,ρ)14↑e6 
 (π,ρ)15↑e6  (π,ρ)16↑e6  (π,ρ)17↑e7 
 (π,ρ)18↑e7  (π,ρ)19↑e7  (π,ρ)20↑e7 
 (π,ρ)21↑e7  (π,ρ)22↑e7  (π,ρ)23↑e7 
 (π,ρ)24↑e7  (π,ρ)25↑e7  (π,ρ)26↑e7 
 (π,ρ)27↑e7  (π,ρ)28↑e7  (π,ρ)29↑e7 
 (π,ρ)30↑e7  (π,ρ)31↑e7  (π,ρ)32↑e7 
 (π,ρ)33↑e8  (π,ρ)34↑e9  (π,ρ)35↑e10  vnp3 
 (π,ρ)36↑e11  (π,ρ)37↑e11  (π,ρ)38↑e11 
 (π,ρ)39↑e11  (π,ρ)40↑e11  (π,ρ)41↑e11 
 (π,ρ)42↑e11  (π,ρ)43↑e11  (π,ρ)44↑e11 
 (π,ρ)45↑e11  (π,ρ)46↑e11  (π,ρ)47↑e11 
 (π,ρ)48↑e11  (π,ρ)49↑e11  (π,ρ)50↑e11 
 (π,ρ)51↑e11  (π,ρ)52↑e12  (π,ρ)53↑e12 
 (π,ρ)54↑e12  (π,ρ)55↑e12  (π,ρ)56↑e12 
 (π,ρ)57↑e12  (π,ρ)58↑e12  (π,ρ)59↑e12 
 (π,ρ)60↑e12  (π,ρ)61↑e12  (π,ρ)62↑e12 
 (π,ρ)63↑e12  (π,ρ)64↑e12  (π,ρ)65↑e12 
 (π,ρ)66↑e12  (π,ρ)67↑e12  (π,ρ)68↑e13 
 (π,ρ)69↑e14  (π,ρ)70↑e15  (π,ρ)71↑e15 
 (π,ρ)72↑e15  (π,ρ)73↑e15  (π,ρ)74↑e15 
 (π,ρ)75↑e15  (π,ρ)76↑e15  (π,ρ)77↑e15 
 (π,ρ)78↑e15  (π,ρ)79↑e15  (π,ρ)80↑e15 
 (π,ρ)81↑e15  (π,ρ)82↑e15  (π,ρ)83↑e15 
 (π,ρ)84↑e15  (π,ρ)85↑e15  (π,ρ)86↑e16 
End
